.Version 9.3.0 of ABINIT

 ABINIT is a project of the Universite Catholique de Louvain,
 Corning Inc. and other collaborators, see ~abinit/doc/developers/contributors.txt .
 acknowledgments of the ABINIT effort.

.Starting date : Wed 30 Sep 2020.
- ( at 03h44 )

- input  file    -> /Users/gmatteo/git_repos/abitutorials/abitutorials/sigeph/flow_diamond/w0/t2/run.abi
- output file    -> /Users/gmatteo/git_repos/abitutorials/abitutorials/sigeph/flow_diamond/w0/t2/run.abo
- root for input  files -> /Users/gmatteo/git_repos/abitutorials/abitutorials/sigeph/flow_diamond/w0/t2/indata/in
- root for output files -> /Users/gmatteo/git_repos/abitutorials/abitutorials/sigeph/flow_diamond/w0/t2/outdata/out

 Symmetries : space group Fd -3 m (#227); Bravais cF (face-center cubic)
     intxc =       0    ionmov =       0      iscf =      -2    lmnmax =       1
     lnmax =       1     mgfft =      24  mpssoang =       2    mqgrid =    3001
     natom =       2  nloc_mem =       1    nspden =       1   nspinor =       1
    nsppol =       1      nsym =      48    n1xccc =    2501    ntypat =       1
    occopt =       1   xclevel =       1
-    mband =         210        mffmem =           1         mkmem =          15
       mpw =         464          nfft =       13824          nkpt =          29
  Rough estimation (10% accuracy) of disk space for files :

------------- Echo of variables that govern the present computation ------------
-
- outvars: echo of selected default values
-   iomode0 =  0 , fftalg0 =312 , wfoptalg0 =  0
-
- outvars: echo of global parameters not present in the input file
-  max_nthreads =    0
-
 -outvars: echo values of preprocessed input variables --------
-          iomode           1
            acell      1.0000000000E+00  1.0000000000E+00  1.0000000000E+00 Bohr
              amu      1.20110000E+01
     densfor_pred           6
             ecut      2.50000000E+01 Hartree
-          fftalg         312
           irdden           1
             iscf          -2
           istwfk        2    0    0    0    1    0    0    0    0    0
                         0    0    0    0    0    0    0    0    0    0
                         1    0    0    0    0    0    0    0    0
              kpt      0.00000000E+00  0.00000000E+00  0.00000000E+00
                       1.25000000E-01  0.00000000E+00  0.00000000E+00
                       2.50000000E-01  0.00000000E+00  0.00000000E+00
                       3.75000000E-01  0.00000000E+00  0.00000000E+00
                       5.00000000E-01  0.00000000E+00  0.00000000E+00
                       1.25000000E-01  1.25000000E-01  0.00000000E+00
                       2.50000000E-01  1.25000000E-01  0.00000000E+00
                       3.75000000E-01  1.25000000E-01  0.00000000E+00
                       5.00000000E-01  1.25000000E-01  0.00000000E+00
                      -3.75000000E-01  1.25000000E-01  0.00000000E+00
                      -2.50000000E-01  1.25000000E-01  0.00000000E+00
                      -1.25000000E-01  1.25000000E-01  0.00000000E+00
                       2.50000000E-01  2.50000000E-01  0.00000000E+00
                       3.75000000E-01  2.50000000E-01  0.00000000E+00
                       5.00000000E-01  2.50000000E-01  0.00000000E+00
                      -3.75000000E-01  2.50000000E-01  0.00000000E+00
                      -2.50000000E-01  2.50000000E-01  0.00000000E+00
                       3.75000000E-01  3.75000000E-01  0.00000000E+00
                       5.00000000E-01  3.75000000E-01  0.00000000E+00
                      -3.75000000E-01  3.75000000E-01  0.00000000E+00
                       5.00000000E-01  5.00000000E-01  0.00000000E+00
                       3.75000000E-01  2.50000000E-01  1.25000000E-01
                       5.00000000E-01  2.50000000E-01  1.25000000E-01
                      -3.75000000E-01  2.50000000E-01  1.25000000E-01
                       5.00000000E-01  3.75000000E-01  1.25000000E-01
                      -3.75000000E-01  3.75000000E-01  1.25000000E-01
                      -2.50000000E-01  3.75000000E-01  1.25000000E-01
                      -3.75000000E-01  5.00000000E-01  1.25000000E-01
                      -2.50000000E-01  5.00000000E-01  2.50000000E-01
         kptrlatt        8    0    0      0    8    0      0    0    8
          kptrlen      3.79205417E+01
P           mkmem          15
            natom           2
            nband         210
           nbdbuf          10
            ngfft          24      24      24
             nkpt          29
-           npkpt           2
             nsym          48
           ntypat           1
           ortalg          -2
        paral_kgb           1
            rprim      0.0000000000E+00  3.3517340250E+00  3.3517340250E+00
                       3.3517340250E+00  0.0000000000E+00  3.3517340250E+00
                       3.3517340250E+00  3.3517340250E+00  0.0000000000E+00
          spgroup         227
           symrel      1  0  0   0  1  0   0  0  1      -1  0  0   0 -1  0   0  0 -1
                       0 -1  1   0 -1  0   1 -1  0       0  1 -1   0  1  0  -1  1  0
                      -1  0  0  -1  0  1  -1  1  0       1  0  0   1  0 -1   1 -1  0
                       0  1 -1   1  0 -1   0  0 -1       0 -1  1  -1  0  1   0  0  1
                      -1  0  0  -1  1  0  -1  0  1       1  0  0   1 -1  0   1  0 -1
                       0 -1  1   1 -1  0   0 -1  0       0  1 -1  -1  1  0   0  1  0
                       1  0  0   0  0  1   0  1  0      -1  0  0   0  0 -1   0 -1  0
                       0  1 -1   0  0 -1   1  0 -1       0 -1  1   0  0  1  -1  0  1
                      -1  0  1  -1  1  0  -1  0  0       1  0 -1   1 -1  0   1  0  0
                       0 -1  0   1 -1  0   0 -1  1       0  1  0  -1  1  0   0  1 -1
                       1  0 -1   0  0 -1   0  1 -1      -1  0  1   0  0  1   0 -1  1
                       0  1  0   0  0  1   1  0  0       0 -1  0   0  0 -1  -1  0  0
                       1  0 -1   0  1 -1   0  0 -1      -1  0  1   0 -1  1   0  0  1
                       0 -1  0   0 -1  1   1 -1  0       0  1  0   0  1 -1  -1  1  0
                      -1  0  1  -1  0  0  -1  1  0       1  0 -1   1  0  0   1 -1  0
                       0  1  0   1  0  0   0  0  1       0 -1  0  -1  0  0   0  0 -1
                       0  0 -1   0  1 -1   1  0 -1       0  0  1   0 -1  1  -1  0  1
                       1 -1  0   0 -1  1   0 -1  0      -1  1  0   0  1 -1   0  1  0
                       0  0  1   1  0  0   0  1  0       0  0 -1  -1  0  0   0 -1  0
                      -1  1  0  -1  0  0  -1  0  1       1 -1  0   1  0  0   1  0 -1
                       0  0  1   0  1  0   1  0  0       0  0 -1   0 -1  0  -1  0  0
                       1 -1  0   0 -1  0   0 -1  1      -1  1  0   0  1  0   0  1 -1
                       0  0 -1   1  0 -1   0  1 -1       0  0  1  -1  0  1   0 -1  1
                      -1  1  0  -1  0  1  -1  0  0       1 -1  0   1  0 -1   1  0  0
            tnons      0.0000000  0.0000000  0.0000000     0.2500000  0.2500000  0.2500000
                       0.0000000  0.0000000  0.0000000     0.2500000  0.2500000  0.2500000
                       0.0000000  0.0000000  0.0000000     0.2500000  0.2500000  0.2500000
                       0.0000000  0.0000000  0.0000000     0.2500000  0.2500000  0.2500000
                       0.0000000  0.0000000  0.0000000     0.2500000  0.2500000  0.2500000
                       0.0000000  0.0000000  0.0000000     0.2500000  0.2500000  0.2500000
                       0.0000000  0.0000000  0.0000000     0.2500000  0.2500000  0.2500000
                       0.0000000  0.0000000  0.0000000     0.2500000  0.2500000  0.2500000
                       0.0000000  0.0000000  0.0000000     0.2500000  0.2500000  0.2500000
                       0.0000000  0.0000000  0.0000000     0.2500000  0.2500000  0.2500000
                       0.0000000  0.0000000  0.0000000     0.2500000  0.2500000  0.2500000
                       0.0000000  0.0000000  0.0000000     0.2500000  0.2500000  0.2500000
                       0.0000000  0.0000000  0.0000000     0.2500000  0.2500000  0.2500000
                       0.0000000  0.0000000  0.0000000     0.2500000  0.2500000  0.2500000
                       0.0000000  0.0000000  0.0000000     0.2500000  0.2500000  0.2500000
                       0.0000000  0.0000000  0.0000000     0.2500000  0.2500000  0.2500000
                       0.0000000  0.0000000  0.0000000     0.2500000  0.2500000  0.2500000
                       0.0000000  0.0000000  0.0000000     0.2500000  0.2500000  0.2500000
                       0.0000000  0.0000000  0.0000000     0.2500000  0.2500000  0.2500000
                       0.0000000  0.0000000  0.0000000     0.2500000  0.2500000  0.2500000
                       0.0000000  0.0000000  0.0000000     0.2500000  0.2500000  0.2500000
                       0.0000000  0.0000000  0.0000000     0.2500000  0.2500000  0.2500000
                       0.0000000  0.0000000  0.0000000     0.2500000  0.2500000  0.2500000
                       0.0000000  0.0000000  0.0000000     0.2500000  0.2500000  0.2500000
           tolwfr      1.00000000E-16
            typat      1  1
         wfoptalg         114
              wtk        0.00195    0.01563    0.01563    0.01563    0.00781    0.01172
                         0.04688    0.04688    0.04688    0.04688    0.04688    0.02344
                         0.01172    0.04688    0.04688    0.04688    0.02344    0.01172
                         0.04688    0.02344    0.00586    0.04688    0.09375    0.04688
                         0.04688    0.09375    0.04688    0.02344    0.01172
           xangst      0.0000000000E+00  0.0000000000E+00  0.0000000000E+00
                       8.8683062764E-01  8.8683062764E-01  8.8683062764E-01
            xcart      0.0000000000E+00  0.0000000000E+00  0.0000000000E+00
                       1.6758670125E+00  1.6758670125E+00  1.6758670125E+00
             xred      0.0000000000E+00  0.0000000000E+00  0.0000000000E+00
                       2.5000000000E-01  2.5000000000E-01  2.5000000000E-01
            znucl        6.00000

 chkinp: Checking input parameters for consistency.

== DATASET  1 ==================================================================
-   mpi_nproc: 2, omp_nthreads: -1 (-1 if OMP is not activated)

--- !DatasetInfo
iteration_state: {dtset: 1, }
dimensions: {natom: 2, nkpt: 29, mband: 210, nsppol: 1, nspinor: 1, nspden: 1, mpw: 464, }
cutoff_energies: {ecut:  25.0, pawecutdg:  -1.0, }
electrons: {nelect:   8.00000000E+00, charge:   0.00000000E+00, occopt:   1.00000000E+00, tsmear:   1.00000000E-02, }
meta: {optdriver: 0, ionmov: 0, optcell: 0, iscf: -2, paral_kgb: 1, }
...

 Real(R)+Recip(G) space primitive vectors, cartesian coordinates (Bohr,Bohr^-1):
 R(1)=  0.0000000  3.3517340  3.3517340  G(1)= -0.1491765  0.1491765  0.1491765
 R(2)=  3.3517340  0.0000000  3.3517340  G(2)=  0.1491765 -0.1491765  0.1491765
 R(3)=  3.3517340  3.3517340  0.0000000  G(3)=  0.1491765  0.1491765 -0.1491765
 Unit cell volume ucvol=  7.5307571E+01 bohr^3
[...]
  8.5198E+00  8.5198E+00  8.5220E+00  8.5220E+00  8.5220E+00  8.6130E+00
  8.6229E+00  8.6229E+00  8.6229E+00  8.6277E+00  8.6277E+00  9.5692E+00
  9.5890E+00  9.5890E+00  9.5890E+00  9.6406E+00  9.6406E+00  9.6406E+00
  9.8045E+00  9.9054E+00  9.9054E+00  1.0074E+01  1.0074E+01  1.0074E+01
  1.0141E+01  1.0141E+01  1.0141E+01  1.0214E+01  1.0214E+01  1.0214E+01
  1.0239E+01  1.0239E+01  1.0239E+01  1.0278E+01  1.0278E+01  1.1202E+01
  1.1210E+01  1.1210E+01  1.1219E+01  1.1219E+01  1.1219E+01  1.1283E+01
  1.1283E+01  1.1294E+01  1.1294E+01  1.1294E+01  1.1312E+01  1.1381E+01
  1.1381E+01  1.1381E+01  1.1411E+01  1.1411E+01  1.1411E+01  1.1429E+01
  1.1500E+01  1.1560E+01  1.1560E+01  1.1560E+01  1.1561E+01  1.1561E+01
  1.1561E+01  1.1571E+01  1.1571E+01  1.1571E+01  1.1574E+01  1.1574E+01
  1.1574E+01  1.3352E+01  1.3352E+01  1.3352E+01  1.3361E+01  1.3361E+01
  1.3361E+01  1.3381E+01  1.3381E+01  1.3381E+01  1.3385E+01  1.3406E+01
  1.3406E+01  1.4139E+01  1.4164E+01  1.4164E+01  1.4164E+01  1.4222E+01
  1.4222E+01  1.4222E+01  1.4480E+01  1.4480E+01  1.4480E+01  1.4482E+01
  1.4482E+01  1.4487E+01  1.4705E+01  1.4705E+01  1.4705E+01  1.4730E+01
  1.4730E+01  1.4730E+01  1.4762E+01  1.4762E+01  1.4796E+01  1.4796E+01
  1.4796E+01  1.4988E+01  1.4989E+01  1.4991E+01  1.4991E+01  1.5014E+01
  prteigrs : nnsclo,ikpt=   30    1 max resid (incl. the buffer)=  1.75044E-06
 prteigrs : prtvol=0 or 1, do not print more k-points.

  prteigrs : nnsclo,ikpt=   30    2 max resid (incl. the buffer)=  5.04090E-07
  prteigrs : nnsclo,ikpt=   30    3 max resid (incl. the buffer)=  4.29178E-07
  prteigrs : nnsclo,ikpt=   30    4 max resid (incl. the buffer)=  2.15631E-06
  prteigrs : nnsclo,ikpt=   30    5 max resid (incl. the buffer)=  2.34171E-14
  prteigrs : nnsclo,ikpt=   30    6 max resid (incl. the buffer)=  2.90736E-06
  prteigrs : nnsclo,ikpt=   30    7 max resid (incl. the buffer)=  5.28258E-07
  prteigrs : nnsclo,ikpt=   30    8 max resid (incl. the buffer)=  4.17424E-07
  prteigrs : nnsclo,ikpt=   30    9 max resid (incl. the buffer)=  1.80088E-07
  prteigrs : nnsclo,ikpt=   30   10 max resid (incl. the buffer)=  7.56056E-07
  prteigrs : nnsclo,ikpt=   30   11 max resid (incl. the buffer)=  3.54878E-07
  prteigrs : nnsclo,ikpt=   30   12 max resid (incl. the buffer)=  9.86633E-10
  prteigrs : nnsclo,ikpt=   30   13 max resid (incl. the buffer)=  2.02012E-06
  prteigrs : nnsclo,ikpt=   30   14 max resid (incl. the buffer)=  9.53969E-07
  prteigrs : nnsclo,ikpt=   30   15 max resid (incl. the buffer)=  2.33251E-07
  prteigrs : nnsclo,ikpt=   30   16 max resid (incl. the buffer)=  2.80870E-06
  prteigrs : nnsclo,ikpt=   30   17 max resid (incl. the buffer)=  1.17310E-10
  prteigrs : nnsclo,ikpt=   30   18 max resid (incl. the buffer)=  2.36011E-05
  prteigrs : nnsclo,ikpt=   30   19 max resid (incl. the buffer)=  1.66660E-06
  prteigrs : nnsclo,ikpt=   30   20 max resid (incl. the buffer)=  2.82746E-07
  prteigrs : nnsclo,ikpt=   30   21 max resid (incl. the buffer)=  7.96711E-06
  prteigrs : nnsclo,ikpt=   30   22 max resid (incl. the buffer)=  4.34354E-08
  prteigrs : nnsclo,ikpt=   30   23 max resid (incl. the buffer)=  8.26448E-09
  prteigrs : nnsclo,ikpt=   30   24 max resid (incl. the buffer)=  5.27716E-07
  prteigrs : nnsclo,ikpt=   30   25 max resid (incl. the buffer)=  3.44780E-07
  prteigrs : nnsclo,ikpt=   30   26 max resid (incl. the buffer)=  5.22603E-07
  prteigrs : nnsclo,ikpt=   30   27 max resid (incl. the buffer)=  1.04188E-06
  prteigrs : nnsclo,ikpt=   30   28 max resid (incl. the buffer)=  3.42124E-06
  prteigrs : nnsclo,ikpt=   30   29 max resid (incl. the buffer)=  8.17970E-06

--- !ResultsGS
iteration_state: {dtset: 1, }
comment   : Summary of ground state results
lattice_vectors:
- [  0.0000000,   3.3517340,   3.3517340, ]
- [  3.3517340,   0.0000000,   3.3517340, ]
- [  3.3517340,   3.3517340,   0.0000000, ]
lattice_lengths: [   4.74007,    4.74007,    4.74007, ]
lattice_angles: [ 60.000,  60.000,  60.000, ] # degrees, (23, 13, 12)
lattice_volume:   7.5307571E+01
convergence: {deltae:  0.000E+00, res2:  0.000E+00, residm:  7.912E-17, diffor:  0.000E+00, }
etotal    :  -1.20746517E+01
entropy   :   0.00000000E+00
fermie    :   4.68313990E-01
cartesian_stress_tensor: null
pressure_GPa: null
xred      :
- [  0.0000E+00,   0.0000E+00,   0.0000E+00,  C]
- [  2.5000E-01,   2.5000E-01,   2.5000E-01,  C]
cartesian_forces: null
force_length_stats: {min: null, max: null, mean: null, }
...

 Integrated electronic density in atomic spheres:
 Atom  Sphere_radius  Integrated_density
    1        2.00000          4.70212506
    2        2.00000          4.70212506

 ----iterations are completed or convergence reached----

 Mean square residual over all n,k,spin=   23.829E-20; max=  79.116E-18
 reduced coordinates (array xred) for    2 atoms
       0.000000000000      0.000000000000      0.000000000000
       0.250000000000      0.250000000000      0.250000000000

 cartesian coordinates (angstrom) at end:
    1      0.00000000000000     0.00000000000000     0.00000000000000
    2      0.88683062764281     0.88683062764281     0.88683062764281
 length scales=  1.000000000000  1.000000000000  1.000000000000 bohr
              =  0.529177208590  0.529177208590  0.529177208590 angstroms
 prteigrs : about to open file /Users/gmatteo/git_repos/abitutorials/abitutorials/sigeph/flow_diamond/w0/t2/outdata/out_EIG
 Eigenvalues (hartree) for nkpt=  29  k points:
 kpt#   1, nband=210, wtk=  0.00195, kpt=  0.0000  0.0000  0.0000 (reduced coord)
  -0.32325    0.46831    0.46831    0.46831    0.67474    0.67474    0.67474    0.98020
   1.17519    1.45931    1.45931    1.48286    1.48286    1.48286    1.73950    2.24751
   2.24751    2.24751    2.95470    2.95470    2.95470    3.11356    3.11356    3.25215
   3.25215    3.25215    3.50830    3.50830    3.50830    3.58756    4.09687    4.09687
   4.09687    4.29589    4.29589    4.31863    4.31863    4.36670    4.36670    4.36670
   4.53192    4.53192    4.53192    4.58438    4.58438    4.58438    4.58879    4.62166
   4.62166    4.62166    4.73546    4.94567    4.94567    4.94567    4.97898    4.97898
   4.97898    5.06599    5.14585    6.49997    6.49997    6.49997    6.52128    6.52128
   6.70178    6.97869    6.97869    6.97869    7.19275    7.19275    7.19275    7.33815
   7.45302    7.45302    7.61040    7.71554    7.71554    7.71554    7.72248    7.72248
   7.72248    7.73568    7.73568    7.73568    7.96010    7.96010    7.96817    7.96817
   7.96817    8.25174    8.25174    8.27637    8.27637    8.27637    8.35306    8.49197
   8.49197    8.49197    8.49800    8.49800    8.49800    8.51985    8.51985    8.51985
   8.52202    8.52202    8.52202    8.61299    8.62289    8.62289    8.62289    8.62769
   8.62769    9.56917    9.58905    9.58905    9.58905    9.64059    9.64059    9.64059
   9.80451    9.90544    9.90544   10.07363   10.07363   10.07363   10.14073   10.14073
  10.14073   10.21398   10.21398   10.21398   10.23881   10.23881   10.23881   10.27796
  10.27796   11.20168   11.21022   11.21022   11.21899   11.21899   11.21899   11.28259
  11.28259   11.29423   11.29423   11.29423   11.31159   11.38072   11.38072   11.38072
  11.41135   11.41135   11.41135   11.42884   11.50006   11.56044   11.56044   11.56044
  11.56141   11.56141   11.56141   11.57110   11.57110   11.57110   11.57399   11.57399
  11.57399   13.35169   13.35169   13.35169   13.36070   13.36070   13.36070   13.38072
  13.38072   13.38072   13.38493   13.40647   13.40647   14.13930   14.16401   14.16401
  14.16401   14.22198   14.22198   14.22198   14.47955   14.47955   14.47955   14.48207
  14.48207   14.48737   14.70464   14.70464   14.70464   14.72999   14.72999   14.72999
  14.76233   14.76233   14.79576   14.79576   14.79576   14.98814   14.98914   14.99067
  14.99116   15.01436
 prteigrs : prtvol=0 or 1, do not print more k-points.

== END DATASET(S) ==============================================================

 -outvars: echo values of variables after computation  --------
-          iomode           1
            acell      1.0000000000E+00  1.0000000000E+00  1.0000000000E+00 Bohr
              amu      1.20110000E+01
     densfor_pred           6
             ecut      2.50000000E+01 Hartree
-          fftalg         312
           irdden           1
             iscf          -2
           istwfk        2    0    0    0    1    0    0    0    0    0
                         0    0    0    0    0    0    0    0    0    0
                         1    0    0    0    0    0    0    0    0
              kpt      0.00000000E+00  0.00000000E+00  0.00000000E+00
                       1.25000000E-01  0.00000000E+00  0.00000000E+00
                       2.50000000E-01  0.00000000E+00  0.00000000E+00
                       3.75000000E-01  0.00000000E+00  0.00000000E+00
                       5.00000000E-01  0.00000000E+00  0.00000000E+00
                       1.25000000E-01  1.25000000E-01  0.00000000E+00
                       2.50000000E-01  1.25000000E-01  0.00000000E+00
                       3.75000000E-01  1.25000000E-01  0.00000000E+00
                       5.00000000E-01  1.25000000E-01  0.00000000E+00
                      -3.75000000E-01  1.25000000E-01  0.00000000E+00
                      -2.50000000E-01  1.25000000E-01  0.00000000E+00
                      -1.25000000E-01  1.25000000E-01  0.00000000E+00
                       2.50000000E-01  2.50000000E-01  0.00000000E+00
                       3.75000000E-01  2.50000000E-01  0.00000000E+00
                       5.00000000E-01  2.50000000E-01  0.00000000E+00
                      -3.75000000E-01  2.50000000E-01  0.00000000E+00
                      -2.50000000E-01  2.50000000E-01  0.00000000E+00
                       3.75000000E-01  3.75000000E-01  0.00000000E+00
                       5.00000000E-01  3.75000000E-01  0.00000000E+00
                      -3.75000000E-01  3.75000000E-01  0.00000000E+00
                       5.00000000E-01  5.00000000E-01  0.00000000E+00
                       3.75000000E-01  2.50000000E-01  1.25000000E-01
                       5.00000000E-01  2.50000000E-01  1.25000000E-01
                      -3.75000000E-01  2.50000000E-01  1.25000000E-01
                       5.00000000E-01  3.75000000E-01  1.25000000E-01
                      -3.75000000E-01  3.75000000E-01  1.25000000E-01
                      -2.50000000E-01  3.75000000E-01  1.25000000E-01
                      -3.75000000E-01  5.00000000E-01  1.25000000E-01
                      -2.50000000E-01  5.00000000E-01  2.50000000E-01
         kptrlatt        8    0    0      0    8    0      0    0    8
          kptrlen      3.79205417E+01
P           mkmem          15
            natom           2
            nband         210
           nbdbuf          10
            ngfft          24      24      24
             nkpt          29
-           npkpt           2
             nsym          48
           ntypat           1
           ortalg          -2
        paral_kgb           1
            rprim      0.0000000000E+00  3.3517340250E+00  3.3517340250E+00
                       3.3517340250E+00  0.0000000000E+00  3.3517340250E+00
                       3.3517340250E+00  3.3517340250E+00  0.0000000000E+00
          spgroup         227
           symrel      1  0  0   0  1  0   0  0  1      -1  0  0   0 -1  0   0  0 -1
                       0 -1  1   0 -1  0   1 -1  0       0  1 -1   0  1  0  -1  1  0
                      -1  0  0  -1  0  1  -1  1  0       1  0  0   1  0 -1   1 -1  0
                       0  1 -1   1  0 -1   0  0 -1       0 -1  1  -1  0  1   0  0  1
                      -1  0  0  -1  1  0  -1  0  1       1  0  0   1 -1  0   1  0 -1
                       0 -1  1   1 -1  0   0 -1  0       0  1 -1  -1  1  0   0  1  0
                       1  0  0   0  0  1   0  1  0      -1  0  0   0  0 -1   0 -1  0
                       0  1 -1   0  0 -1   1  0 -1       0 -1  1   0  0  1  -1  0  1
                      -1  0  1  -1  1  0  -1  0  0       1  0 -1   1 -1  0   1  0  0
                       0 -1  0   1 -1  0   0 -1  1       0  1  0  -1  1  0   0  1 -1
                       1  0 -1   0  0 -1   0  1 -1      -1  0  1   0  0  1   0 -1  1
                       0  1  0   0  0  1   1  0  0       0 -1  0   0  0 -1  -1  0  0
                       1  0 -1   0  1 -1   0  0 -1      -1  0  1   0 -1  1   0  0  1
                       0 -1  0   0 -1  1   1 -1  0       0  1  0   0  1 -1  -1  1  0
                      -1  0  1  -1  0  0  -1  1  0       1  0 -1   1  0  0   1 -1  0
                       0  1  0   1  0  0   0  0  1       0 -1  0  -1  0  0   0  0 -1
                       0  0 -1   0  1 -1   1  0 -1       0  0  1   0 -1  1  -1  0  1
                       1 -1  0   0 -1  1   0 -1  0      -1  1  0   0  1 -1   0  1  0
                       0  0  1   1  0  0   0  1  0       0  0 -1  -1  0  0   0 -1  0
                      -1  1  0  -1  0  0  -1  0  1       1 -1  0   1  0  0   1  0 -1
                       0  0  1   0  1  0   1  0  0       0  0 -1   0 -1  0  -1  0  0
                       1 -1  0   0 -1  0   0 -1  1      -1  1  0   0  1  0   0  1 -1
                       0  0 -1   1  0 -1   0  1 -1       0  0  1  -1  0  1   0 -1  1
                      -1  1  0  -1  0  1  -1  0  0       1 -1  0   1  0 -1   1  0  0
            tnons      0.0000000  0.0000000  0.0000000     0.2500000  0.2500000  0.2500000
                       0.0000000  0.0000000  0.0000000     0.2500000  0.2500000  0.2500000
                       0.0000000  0.0000000  0.0000000     0.2500000  0.2500000  0.2500000
                       0.0000000  0.0000000  0.0000000     0.2500000  0.2500000  0.2500000
                       0.0000000  0.0000000  0.0000000     0.2500000  0.2500000  0.2500000
                       0.0000000  0.0000000  0.0000000     0.2500000  0.2500000  0.2500000
                       0.0000000  0.0000000  0.0000000     0.2500000  0.2500000  0.2500000
                       0.0000000  0.0000000  0.0000000     0.2500000  0.2500000  0.2500000
                       0.0000000  0.0000000  0.0000000     0.2500000  0.2500000  0.2500000
                       0.0000000  0.0000000  0.0000000     0.2500000  0.2500000  0.2500000
                       0.0000000  0.0000000  0.0000000     0.2500000  0.2500000  0.2500000
                       0.0000000  0.0000000  0.0000000     0.2500000  0.2500000  0.2500000
                       0.0000000  0.0000000  0.0000000     0.2500000  0.2500000  0.2500000
                       0.0000000  0.0000000  0.0000000     0.2500000  0.2500000  0.2500000
                       0.0000000  0.0000000  0.0000000     0.2500000  0.2500000  0.2500000
                       0.0000000  0.0000000  0.0000000     0.2500000  0.2500000  0.2500000
                       0.0000000  0.0000000  0.0000000     0.2500000  0.2500000  0.2500000
                       0.0000000  0.0000000  0.0000000     0.2500000  0.2500000  0.2500000
                       0.0000000  0.0000000  0.0000000     0.2500000  0.2500000  0.2500000
                       0.0000000  0.0000000  0.0000000     0.2500000  0.2500000  0.2500000
                       0.0000000  0.0000000  0.0000000     0.2500000  0.2500000  0.2500000
                       0.0000000  0.0000000  0.0000000     0.2500000  0.2500000  0.2500000
                       0.0000000  0.0000000  0.0000000     0.2500000  0.2500000  0.2500000
                       0.0000000  0.0000000  0.0000000     0.2500000  0.2500000  0.2500000
           tolwfr      1.00000000E-16
            typat      1  1
         wfoptalg         114
              wtk        0.00195    0.01563    0.01563    0.01563    0.00781    0.01172
                         0.04688    0.04688    0.04688    0.04688    0.04688    0.02344
                         0.01172    0.04688    0.04688    0.04688    0.02344    0.01172
                         0.04688    0.02344    0.00586    0.04688    0.09375    0.04688
                         0.04688    0.09375    0.04688    0.02344    0.01172
           xangst      0.0000000000E+00  0.0000000000E+00  0.0000000000E+00
                       8.8683062764E-01  8.8683062764E-01  8.8683062764E-01
            xcart      0.0000000000E+00  0.0000000000E+00  0.0000000000E+00
                       1.6758670125E+00  1.6758670125E+00  1.6758670125E+00
             xred      0.0000000000E+00  0.0000000000E+00  0.0000000000E+00
                       2.5000000000E-01  2.5000000000E-01  2.5000000000E-01
            znucl        6.00000

- Timing analysis has been suppressed with timopt=0

 Suggested references for the acknowledgment of ABINIT usage.

 Calculation completed.
.Delivered   0 WARNINGs and   2 COMMENTs to log file.