.Version 9.3.0 of ABINIT

 ABINIT is a project of the Universite Catholique de Louvain,
 Corning Inc. and other collaborators, see ~abinit/doc/developers/contributors.txt .
 acknowledgments of the ABINIT effort.

.Starting date : Wed 30 Sep 2020.
- ( at 03h44 )

- input  file    -> /Users/gmatteo/git_repos/abitutorials/abitutorials/sigeph/flow_diamond/w0/t1/run.abi
- output file    -> /Users/gmatteo/git_repos/abitutorials/abitutorials/sigeph/flow_diamond/w0/t1/run.abo
- root for input  files -> /Users/gmatteo/git_repos/abitutorials/abitutorials/sigeph/flow_diamond/w0/t1/indata/in
- root for output files -> /Users/gmatteo/git_repos/abitutorials/abitutorials/sigeph/flow_diamond/w0/t1/outdata/out

 Symmetries : space group Fd -3 m (#227); Bravais cF (face-center cubic)
     intxc =       0    ionmov =       0      iscf =      -2    lmnmax =       1
     lnmax =       1     mgfft =      24  mpssoang =       2    mqgrid =    3001
     natom =       2  nloc_mem =       1    nspden =       1   nspinor =       1
    nsppol =       1      nsym =      48    n1xccc =    2501    ntypat =       1
    occopt =       1   xclevel =       1
-    mband =           8        mffmem =           1         mkmem =          99
       mpw =         465          nfft =       13824          nkpt =         198
  Rough estimation (10% accuracy) of disk space for files :

------------- Echo of variables that govern the present computation ------------
-
- outvars: echo of selected default values
-   iomode0 =  0 , fftalg0 =312 , wfoptalg0 =  0
-
- outvars: echo of global parameters not present in the input file
-  max_nthreads =    0
-
 -outvars: echo values of preprocessed input variables --------
-          iomode           1
            acell      1.0000000000E+00  1.0000000000E+00  1.0000000000E+00 Bohr
              amu      1.20110000E+01
     densfor_pred           6
             ecut      2.50000000E+01 Hartree
-          fftalg         312
           irdden           1
             iscf          -2
           istwfk        2    0    0    0    0    0    0    0    0    0
                         0    0    0    0    0    0    0    0    0    0
                         0    0    0    0    0    0    0    0    1    0
                         0    0    0    0    0    0    0    0    0    0
                         0    0    0    0    0    0    0    0    0    0
                       outvar_i_n : Printing only first  50 k-points.
              kpt      0.00000000E+00  0.00000000E+00  0.00000000E+00
                       1.78571429E-02  0.00000000E+00  1.78571429E-02
                       3.57142857E-02  0.00000000E+00  3.57142857E-02
                       5.35714286E-02  0.00000000E+00  5.35714286E-02
                       7.14285714E-02  0.00000000E+00  7.14285714E-02
                       8.92857143E-02  0.00000000E+00  8.92857143E-02
                       1.07142857E-01  0.00000000E+00  1.07142857E-01
                       1.25000000E-01  0.00000000E+00  1.25000000E-01
                       1.42857143E-01  0.00000000E+00  1.42857143E-01
                       1.60714286E-01  0.00000000E+00  1.60714286E-01
                       1.78571429E-01  0.00000000E+00  1.78571429E-01
                       1.96428571E-01  0.00000000E+00  1.96428571E-01
                       2.14285714E-01  0.00000000E+00  2.14285714E-01
                       2.32142857E-01  0.00000000E+00  2.32142857E-01
                       2.50000000E-01  0.00000000E+00  2.50000000E-01
                       2.67857143E-01  0.00000000E+00  2.67857143E-01
                       2.85714286E-01  0.00000000E+00  2.85714286E-01
                       3.03571429E-01  0.00000000E+00  3.03571429E-01
                       3.21428571E-01  0.00000000E+00  3.21428571E-01
                       3.39285714E-01  0.00000000E+00  3.39285714E-01
                       3.57142857E-01  0.00000000E+00  3.57142857E-01
                       3.75000000E-01  0.00000000E+00  3.75000000E-01
                       3.92857143E-01  0.00000000E+00  3.92857143E-01
                       4.10714286E-01  0.00000000E+00  4.10714286E-01
                       4.28571429E-01  0.00000000E+00  4.28571429E-01
                       4.46428571E-01  0.00000000E+00  4.46428571E-01
                       4.64285714E-01  0.00000000E+00  4.64285714E-01
                       4.82142857E-01  0.00000000E+00  4.82142857E-01
                       5.00000000E-01  0.00000000E+00  5.00000000E-01
                       5.00000000E-01  1.78571429E-02  5.17857143E-01
                       5.00000000E-01  3.57142857E-02  5.35714286E-01
                       5.00000000E-01  5.35714286E-02  5.53571429E-01
                       5.00000000E-01  7.14285714E-02  5.71428571E-01
                       5.00000000E-01  8.92857143E-02  5.89285714E-01
                       5.00000000E-01  1.07142857E-01  6.07142857E-01
                       5.00000000E-01  1.25000000E-01  6.25000000E-01
                       5.00000000E-01  1.42857143E-01  6.42857143E-01
                       5.00000000E-01  1.60714286E-01  6.60714286E-01
                       5.00000000E-01  1.78571429E-01  6.78571429E-01
                       5.00000000E-01  1.96428571E-01  6.96428571E-01
                       5.00000000E-01  2.14285714E-01  7.14285714E-01
                       5.00000000E-01  2.32142857E-01  7.32142857E-01
                       5.00000000E-01  2.50000000E-01  7.50000000E-01
                       4.87500000E-01  2.62500000E-01  7.50000000E-01
                       4.75000000E-01  2.75000000E-01  7.50000000E-01
                       4.62500000E-01  2.87500000E-01  7.50000000E-01
                       4.50000000E-01  3.00000000E-01  7.50000000E-01
                       4.37500000E-01  3.12500000E-01  7.50000000E-01
                       4.25000000E-01  3.25000000E-01  7.50000000E-01
                       4.12500000E-01  3.37500000E-01  7.50000000E-01
                       outvar_i_n : Printing only first  50 k-points.
           kptopt         -11
P           mkmem          99
            natom           2
            nband           8
           nbdbuf           2
           ndivsm          10
            ngfft          24      24      24
             nkpt         198
-           npkpt           2
             nsym          48
           ntypat           1
           ortalg          -2
        paral_kgb           1
            rprim      0.0000000000E+00  3.3517340250E+00  3.3517340250E+00
                       3.3517340250E+00  0.0000000000E+00  3.3517340250E+00
                       3.3517340250E+00  3.3517340250E+00  0.0000000000E+00
           shiftk      5.00000000E-01  5.00000000E-01  5.00000000E-01
          spgroup         227
           symrel      1  0  0   0  1  0   0  0  1      -1  0  0   0 -1  0   0  0 -1
                       0 -1  1   0 -1  0   1 -1  0       0  1 -1   0  1  0  -1  1  0
                      -1  0  0  -1  0  1  -1  1  0       1  0  0   1  0 -1   1 -1  0
                       0  1 -1   1  0 -1   0  0 -1       0 -1  1  -1  0  1   0  0  1
                      -1  0  0  -1  1  0  -1  0  1       1  0  0   1 -1  0   1  0 -1
                       0 -1  1   1 -1  0   0 -1  0       0  1 -1  -1  1  0   0  1  0
                       1  0  0   0  0  1   0  1  0      -1  0  0   0  0 -1   0 -1  0
                       0  1 -1   0  0 -1   1  0 -1       0 -1  1   0  0  1  -1  0  1
                      -1  0  1  -1  1  0  -1  0  0       1  0 -1   1 -1  0   1  0  0
                       0 -1  0   1 -1  0   0 -1  1       0  1  0  -1  1  0   0  1 -1
                       1  0 -1   0  0 -1   0  1 -1      -1  0  1   0  0  1   0 -1  1
                       0  1  0   0  0  1   1  0  0       0 -1  0   0  0 -1  -1  0  0
                       1  0 -1   0  1 -1   0  0 -1      -1  0  1   0 -1  1   0  0  1
                       0 -1  0   0 -1  1   1 -1  0       0  1  0   0  1 -1  -1  1  0
                      -1  0  1  -1  0  0  -1  1  0       1  0 -1   1  0  0   1 -1  0
                       0  1  0   1  0  0   0  0  1       0 -1  0  -1  0  0   0  0 -1
                       0  0 -1   0  1 -1   1  0 -1       0  0  1   0 -1  1  -1  0  1
                       1 -1  0   0 -1  1   0 -1  0      -1  1  0   0  1 -1   0  1  0
                       0  0  1   1  0  0   0  1  0       0  0 -1  -1  0  0   0 -1  0
                      -1  1  0  -1  0  0  -1  0  1       1 -1  0   1  0  0   1  0 -1
                       0  0  1   0  1  0   1  0  0       0  0 -1   0 -1  0  -1  0  0
                       1 -1  0   0 -1  0   0 -1  1      -1  1  0   0  1  0   0  1 -1
                       0  0 -1   1  0 -1   0  1 -1       0  0  1  -1  0  1   0 -1  1
                      -1  1  0  -1  0  1  -1  0  0       1 -1  0   1  0 -1   1  0  0
            tnons      0.0000000  0.0000000  0.0000000     0.2500000  0.2500000  0.2500000
                       0.0000000  0.0000000  0.0000000     0.2500000  0.2500000  0.2500000
                       0.0000000  0.0000000  0.0000000     0.2500000  0.2500000  0.2500000
                       0.0000000  0.0000000  0.0000000     0.2500000  0.2500000  0.2500000
                       0.0000000  0.0000000  0.0000000     0.2500000  0.2500000  0.2500000
                       0.0000000  0.0000000  0.0000000     0.2500000  0.2500000  0.2500000
                       0.0000000  0.0000000  0.0000000     0.2500000  0.2500000  0.2500000
                       0.0000000  0.0000000  0.0000000     0.2500000  0.2500000  0.2500000
                       0.0000000  0.0000000  0.0000000     0.2500000  0.2500000  0.2500000
                       0.0000000  0.0000000  0.0000000     0.2500000  0.2500000  0.2500000
                       0.0000000  0.0000000  0.0000000     0.2500000  0.2500000  0.2500000
                       0.0000000  0.0000000  0.0000000     0.2500000  0.2500000  0.2500000
                       0.0000000  0.0000000  0.0000000     0.2500000  0.2500000  0.2500000
                       0.0000000  0.0000000  0.0000000     0.2500000  0.2500000  0.2500000
                       0.0000000  0.0000000  0.0000000     0.2500000  0.2500000  0.2500000
                       0.0000000  0.0000000  0.0000000     0.2500000  0.2500000  0.2500000
                       0.0000000  0.0000000  0.0000000     0.2500000  0.2500000  0.2500000
                       0.0000000  0.0000000  0.0000000     0.2500000  0.2500000  0.2500000
                       0.0000000  0.0000000  0.0000000     0.2500000  0.2500000  0.2500000
                       0.0000000  0.0000000  0.0000000     0.2500000  0.2500000  0.2500000
                       0.0000000  0.0000000  0.0000000     0.2500000  0.2500000  0.2500000
                       0.0000000  0.0000000  0.0000000     0.2500000  0.2500000  0.2500000
                       0.0000000  0.0000000  0.0000000     0.2500000  0.2500000  0.2500000
                       0.0000000  0.0000000  0.0000000     0.2500000  0.2500000  0.2500000
           tolwfr      1.00000000E-16
            typat      1  1
         wfoptalg         114
                       outvars : Printing only first  50 k-points.
[...]
 kpt# 161, nband=  8, wtk=  1.00000, kpt=  0.4485  0.4485  0.6029 (reduced coord)
  -0.08520   -0.00833    0.28256    0.33276    0.74663    0.84496    0.88242    1.03397
 kpt# 162, nband=  8, wtk=  1.00000, kpt=  0.4412  0.4412  0.6176 (reduced coord)
  -0.07941   -0.00236    0.26244    0.32532    0.73823    0.86158    0.90133    1.02607
 kpt# 163, nband=  8, wtk=  1.00000, kpt=  0.4338  0.4338  0.6324 (reduced coord)
  -0.07287    0.00426    0.24153    0.31774    0.72985    0.87905    0.92114    1.01529
 kpt# 164, nband=  8, wtk=  1.00000, kpt=  0.4265  0.4265  0.6471 (reduced coord)
  -0.06560    0.01146    0.22018    0.31022    0.72168    0.89700    0.94139    1.00173
 kpt# 165, nband=  8, wtk=  1.00000, kpt=  0.4191  0.4191  0.6618 (reduced coord)
  -0.05763    0.01909    0.19878    0.30288    0.71389    0.91498    0.96130    0.98617
 kpt# 166, nband=  8, wtk=  1.00000, kpt=  0.4118  0.4118  0.6765 (reduced coord)
  -0.04899    0.02689    0.17767    0.29584    0.70654    0.93261    0.96536    0.98414
 kpt# 167, nband=  8, wtk=  1.00000, kpt=  0.4044  0.4044  0.6912 (reduced coord)
  -0.03975    0.03448    0.15770    0.28922    0.69978    0.94700    0.94947    1.00262
 kpt# 168, nband=  8, wtk=  1.00000, kpt=  0.3971  0.3971  0.7059 (reduced coord)
  -0.03001    0.04098    0.13978    0.28308    0.69362    0.92706    0.96515    1.02002
 kpt# 169, nband=  8, wtk=  1.00000, kpt=  0.3897  0.3897  0.7206 (reduced coord)
  -0.02003    0.04483    0.12586    0.27751    0.68813    0.90677    0.97933    1.03471
 kpt# 170, nband=  8, wtk=  1.00000, kpt=  0.3824  0.3824  0.7353 (reduced coord)
  -0.01046    0.04405    0.11857    0.27255    0.68329    0.88659    0.99160    1.04537
 kpt# 171, nband=  8, wtk=  1.00000, kpt=  0.3750  0.3750  0.7500 (reduced coord)
  -0.00331    0.03954    0.11908    0.26828    0.67913    0.86688    1.00182    1.05158
 kpt# 172, nband=  8, wtk=  1.00000, kpt=  0.3897  0.3676  0.7426 (reduced coord)
  -0.00606    0.04208    0.11821    0.26858    0.68344    0.87672    0.99559    1.04730
 kpt# 173, nband=  8, wtk=  1.00000, kpt=  0.4044  0.3603  0.7353 (reduced coord)
  -0.00932    0.04461    0.11970    0.26580    0.69236    0.88672    0.98584    1.03947
 kpt# 174, nband=  8, wtk=  1.00000, kpt=  0.4191  0.3529  0.7279 (reduced coord)
  -0.01258    0.04646    0.12358    0.26041    0.70548    0.89644    0.97253    1.02957
 kpt# 175, nband=  8, wtk=  1.00000, kpt=  0.4338  0.3456  0.7206 (reduced coord)
  -0.01553    0.04748    0.12953    0.25299    0.72210    0.90458    0.95720    1.01901
 kpt# 176, nband=  8, wtk=  1.00000, kpt=  0.4485  0.3382  0.7132 (reduced coord)
  -0.01800    0.04785    0.13692    0.24435    0.74148    0.90636    0.94542    1.00830
 kpt# 177, nband=  8, wtk=  1.00000, kpt=  0.4632  0.3309  0.7059 (reduced coord)
  -0.01992    0.04784    0.14480    0.23547    0.76272    0.89443    0.94567    0.99750
 kpt# 178, nband=  8, wtk=  1.00000, kpt=  0.4779  0.3235  0.6985 (reduced coord)
  -0.02122    0.04769    0.15187    0.22771    0.78433    0.87491    0.95358    0.98657
 kpt# 179, nband=  8, wtk=  1.00000, kpt=  0.4926  0.3162  0.6912 (reduced coord)
  -0.02188    0.04758    0.15631    0.22291    0.80182    0.85769    0.96335    0.97600
 kpt# 180, nband=  8, wtk=  1.00000, kpt=  0.5074  0.3088  0.6838 (reduced coord)
  -0.02188    0.04758    0.15631    0.22291    0.80182    0.85769    0.96335    0.97600
 kpt# 181, nband=  8, wtk=  1.00000, kpt=  0.5221  0.3015  0.6765 (reduced coord)
  -0.02122    0.04769    0.15187    0.22771    0.78433    0.87491    0.95358    0.98657
 kpt# 182, nband=  8, wtk=  1.00000, kpt=  0.5368  0.2941  0.6691 (reduced coord)
  -0.01992    0.04784    0.14480    0.23547    0.76272    0.89443    0.94567    0.99750
 kpt# 183, nband=  8, wtk=  1.00000, kpt=  0.5515  0.2868  0.6618 (reduced coord)
  -0.01800    0.04785    0.13692    0.24435    0.74148    0.90636    0.94542    1.00830
 kpt# 184, nband=  8, wtk=  1.00000, kpt=  0.5662  0.2794  0.6544 (reduced coord)
  -0.01553    0.04748    0.12953    0.25299    0.72210    0.90458    0.95720    1.01901
 kpt# 185, nband=  8, wtk=  1.00000, kpt=  0.5809  0.2721  0.6471 (reduced coord)
  -0.01258    0.04646    0.12358    0.26041    0.70548    0.89644    0.97253    1.02957
 kpt# 186, nband=  8, wtk=  1.00000, kpt=  0.5956  0.2647  0.6397 (reduced coord)
  -0.00932    0.04461    0.11970    0.26580    0.69236    0.88672    0.98584    1.03947
 kpt# 187, nband=  8, wtk=  1.00000, kpt=  0.6103  0.2574  0.6324 (reduced coord)
  -0.00606    0.04208    0.11821    0.26858    0.68344    0.87672    0.99559    1.04730
 kpt# 188, nband=  8, wtk=  1.00000, kpt=  0.6250  0.2500  0.6250 (reduced coord)
  -0.00331    0.03954    0.11908    0.26828    0.67913    0.86688    1.00182    1.05158
 kpt# 189, nband=  8, wtk=  1.00000, kpt=  0.6125  0.2250  0.6125 (reduced coord)
   0.00263    0.03235    0.12770    0.26177    0.67283    0.83410    1.01692    1.05807
 kpt# 190, nband=  8, wtk=  1.00000, kpt=  0.6000  0.2000  0.6000 (reduced coord)
   0.00575    0.02593    0.13980    0.25594    0.66720    0.80213    1.03121    1.06444
 kpt# 191, nband=  8, wtk=  1.00000, kpt=  0.5875  0.1750  0.5875 (reduced coord)
   0.00676    0.02025    0.15421    0.25073    0.66217    0.77118    1.04441    1.07029
 kpt# 192, nband=  8, wtk=  1.00000, kpt=  0.5750  0.1500  0.5750 (reduced coord)
   0.00650    0.01533    0.16991    0.24617    0.65780    0.74232    1.05646    1.07577
 kpt# 193, nband=  8, wtk=  1.00000, kpt=  0.5625  0.1250  0.5625 (reduced coord)
   0.00558    0.01116    0.18578    0.24233    0.65411    0.71587    1.06709    1.08061
 kpt# 194, nband=  8, wtk=  1.00000, kpt=  0.5500  0.1000  0.5500 (reduced coord)
   0.00443    0.00774    0.20079    0.23913    0.65106    0.69248    1.07612    1.08483
 kpt# 195, nband=  8, wtk=  1.00000, kpt=  0.5375  0.0750  0.5375 (reduced coord)
   0.00332    0.00509    0.21397    0.23662    0.64868    0.67294    1.08336    1.08827
 kpt# 196, nband=  8, wtk=  1.00000, kpt=  0.5250  0.0500  0.5250 (reduced coord)
   0.00243    0.00319    0.22440    0.23482    0.64698    0.65812    1.08868    1.09082
 kpt# 197, nband=  8, wtk=  1.00000, kpt=  0.5125  0.0250  0.5125 (reduced coord)
   0.00186    0.00205    0.23106    0.23374    0.64596    0.64880    1.09190    1.09238
 kpt# 198, nband=  8, wtk=  1.00000, kpt=  0.5000  0.0000  0.5000 (reduced coord)
   0.00167    0.00167    0.23338    0.23338    0.64563    0.64563    1.09298    1.09298

== END DATASET(S) ==============================================================

 -outvars: echo values of variables after computation  --------
-          iomode           1
            acell      1.0000000000E+00  1.0000000000E+00  1.0000000000E+00 Bohr
              amu      1.20110000E+01
     densfor_pred           6
             ecut      2.50000000E+01 Hartree
-          fftalg         312
           irdden           1
             iscf          -2
           istwfk        2    0    0    0    0    0    0    0    0    0
                         0    0    0    0    0    0    0    0    0    0
                         0    0    0    0    0    0    0    0    1    0
                         0    0    0    0    0    0    0    0    0    0
                         0    0    0    0    0    0    0    0    0    0
                       outvar_i_n : Printing only first  50 k-points.
              kpt      0.00000000E+00  0.00000000E+00  0.00000000E+00
                       1.78571429E-02  0.00000000E+00  1.78571429E-02
                       3.57142857E-02  0.00000000E+00  3.57142857E-02
                       5.35714286E-02  0.00000000E+00  5.35714286E-02
                       7.14285714E-02  0.00000000E+00  7.14285714E-02
                       8.92857143E-02  0.00000000E+00  8.92857143E-02
                       1.07142857E-01  0.00000000E+00  1.07142857E-01
                       1.25000000E-01  0.00000000E+00  1.25000000E-01
                       1.42857143E-01  0.00000000E+00  1.42857143E-01
                       1.60714286E-01  0.00000000E+00  1.60714286E-01
                       1.78571429E-01  0.00000000E+00  1.78571429E-01
                       1.96428571E-01  0.00000000E+00  1.96428571E-01
                       2.14285714E-01  0.00000000E+00  2.14285714E-01
                       2.32142857E-01  0.00000000E+00  2.32142857E-01
                       2.50000000E-01  0.00000000E+00  2.50000000E-01
                       2.67857143E-01  0.00000000E+00  2.67857143E-01
                       2.85714286E-01  0.00000000E+00  2.85714286E-01
                       3.03571429E-01  0.00000000E+00  3.03571429E-01
                       3.21428571E-01  0.00000000E+00  3.21428571E-01
                       3.39285714E-01  0.00000000E+00  3.39285714E-01
                       3.57142857E-01  0.00000000E+00  3.57142857E-01
                       3.75000000E-01  0.00000000E+00  3.75000000E-01
                       3.92857143E-01  0.00000000E+00  3.92857143E-01
                       4.10714286E-01  0.00000000E+00  4.10714286E-01
                       4.28571429E-01  0.00000000E+00  4.28571429E-01
                       4.46428571E-01  0.00000000E+00  4.46428571E-01
                       4.64285714E-01  0.00000000E+00  4.64285714E-01
                       4.82142857E-01  0.00000000E+00  4.82142857E-01
                       5.00000000E-01  0.00000000E+00  5.00000000E-01
                       5.00000000E-01  1.78571429E-02  5.17857143E-01
                       5.00000000E-01  3.57142857E-02  5.35714286E-01
                       5.00000000E-01  5.35714286E-02  5.53571429E-01
                       5.00000000E-01  7.14285714E-02  5.71428571E-01
                       5.00000000E-01  8.92857143E-02  5.89285714E-01
                       5.00000000E-01  1.07142857E-01  6.07142857E-01
                       5.00000000E-01  1.25000000E-01  6.25000000E-01
                       5.00000000E-01  1.42857143E-01  6.42857143E-01
                       5.00000000E-01  1.60714286E-01  6.60714286E-01
                       5.00000000E-01  1.78571429E-01  6.78571429E-01
                       5.00000000E-01  1.96428571E-01  6.96428571E-01
                       5.00000000E-01  2.14285714E-01  7.14285714E-01
                       5.00000000E-01  2.32142857E-01  7.32142857E-01
                       5.00000000E-01  2.50000000E-01  7.50000000E-01
                       4.87500000E-01  2.62500000E-01  7.50000000E-01
                       4.75000000E-01  2.75000000E-01  7.50000000E-01
                       4.62500000E-01  2.87500000E-01  7.50000000E-01
                       4.50000000E-01  3.00000000E-01  7.50000000E-01
                       4.37500000E-01  3.12500000E-01  7.50000000E-01
                       4.25000000E-01  3.25000000E-01  7.50000000E-01
                       4.12500000E-01  3.37500000E-01  7.50000000E-01
                       outvar_i_n : Printing only first  50 k-points.
           kptopt         -11
P           mkmem          99
            natom           2
            nband           8
           nbdbuf           2
           ndivsm          10
            ngfft          24      24      24
             nkpt         198
-           npkpt           2
             nsym          48
           ntypat           1
           ortalg          -2
        paral_kgb           1
            rprim      0.0000000000E+00  3.3517340250E+00  3.3517340250E+00
                       3.3517340250E+00  0.0000000000E+00  3.3517340250E+00
                       3.3517340250E+00  3.3517340250E+00  0.0000000000E+00
           shiftk      5.00000000E-01  5.00000000E-01  5.00000000E-01
          spgroup         227
           symrel      1  0  0   0  1  0   0  0  1      -1  0  0   0 -1  0   0  0 -1
                       0 -1  1   0 -1  0   1 -1  0       0  1 -1   0  1  0  -1  1  0
                      -1  0  0  -1  0  1  -1  1  0       1  0  0   1  0 -1   1 -1  0
                       0  1 -1   1  0 -1   0  0 -1       0 -1  1  -1  0  1   0  0  1
                      -1  0  0  -1  1  0  -1  0  1       1  0  0   1 -1  0   1  0 -1
                       0 -1  1   1 -1  0   0 -1  0       0  1 -1  -1  1  0   0  1  0
                       1  0  0   0  0  1   0  1  0      -1  0  0   0  0 -1   0 -1  0
                       0  1 -1   0  0 -1   1  0 -1       0 -1  1   0  0  1  -1  0  1
                      -1  0  1  -1  1  0  -1  0  0       1  0 -1   1 -1  0   1  0  0
                       0 -1  0   1 -1  0   0 -1  1       0  1  0  -1  1  0   0  1 -1
                       1  0 -1   0  0 -1   0  1 -1      -1  0  1   0  0  1   0 -1  1
                       0  1  0   0  0  1   1  0  0       0 -1  0   0  0 -1  -1  0  0
                       1  0 -1   0  1 -1   0  0 -1      -1  0  1   0 -1  1   0  0  1
                       0 -1  0   0 -1  1   1 -1  0       0  1  0   0  1 -1  -1  1  0
                      -1  0  1  -1  0  0  -1  1  0       1  0 -1   1  0  0   1 -1  0
                       0  1  0   1  0  0   0  0  1       0 -1  0  -1  0  0   0  0 -1
                       0  0 -1   0  1 -1   1  0 -1       0  0  1   0 -1  1  -1  0  1
                       1 -1  0   0 -1  1   0 -1  0      -1  1  0   0  1 -1   0  1  0
                       0  0  1   1  0  0   0  1  0       0  0 -1  -1  0  0   0 -1  0
                      -1  1  0  -1  0  0  -1  0  1       1 -1  0   1  0  0   1  0 -1
                       0  0  1   0  1  0   1  0  0       0  0 -1   0 -1  0  -1  0  0
                       1 -1  0   0 -1  0   0 -1  1      -1  1  0   0  1  0   0  1 -1
                       0  0 -1   1  0 -1   0  1 -1       0  0  1  -1  0  1   0 -1  1
                      -1  1  0  -1  0  1  -1  0  0       1 -1  0   1  0 -1   1  0  0
            tnons      0.0000000  0.0000000  0.0000000     0.2500000  0.2500000  0.2500000
                       0.0000000  0.0000000  0.0000000     0.2500000  0.2500000  0.2500000
                       0.0000000  0.0000000  0.0000000     0.2500000  0.2500000  0.2500000
                       0.0000000  0.0000000  0.0000000     0.2500000  0.2500000  0.2500000
                       0.0000000  0.0000000  0.0000000     0.2500000  0.2500000  0.2500000
                       0.0000000  0.0000000  0.0000000     0.2500000  0.2500000  0.2500000
                       0.0000000  0.0000000  0.0000000     0.2500000  0.2500000  0.2500000
                       0.0000000  0.0000000  0.0000000     0.2500000  0.2500000  0.2500000
                       0.0000000  0.0000000  0.0000000     0.2500000  0.2500000  0.2500000
                       0.0000000  0.0000000  0.0000000     0.2500000  0.2500000  0.2500000
                       0.0000000  0.0000000  0.0000000     0.2500000  0.2500000  0.2500000
                       0.0000000  0.0000000  0.0000000     0.2500000  0.2500000  0.2500000
                       0.0000000  0.0000000  0.0000000     0.2500000  0.2500000  0.2500000
                       0.0000000  0.0000000  0.0000000     0.2500000  0.2500000  0.2500000
                       0.0000000  0.0000000  0.0000000     0.2500000  0.2500000  0.2500000
                       0.0000000  0.0000000  0.0000000     0.2500000  0.2500000  0.2500000
                       0.0000000  0.0000000  0.0000000     0.2500000  0.2500000  0.2500000
                       0.0000000  0.0000000  0.0000000     0.2500000  0.2500000  0.2500000
                       0.0000000  0.0000000  0.0000000     0.2500000  0.2500000  0.2500000
                       0.0000000  0.0000000  0.0000000     0.2500000  0.2500000  0.2500000
                       0.0000000  0.0000000  0.0000000     0.2500000  0.2500000  0.2500000
                       0.0000000  0.0000000  0.0000000     0.2500000  0.2500000  0.2500000
                       0.0000000  0.0000000  0.0000000     0.2500000  0.2500000  0.2500000
                       0.0000000  0.0000000  0.0000000     0.2500000  0.2500000  0.2500000
           tolwfr      1.00000000E-16
            typat      1  1
         wfoptalg         114
                       outvars : Printing only first  50 k-points.
           xangst      0.0000000000E+00  0.0000000000E+00  0.0000000000E+00
                       8.8683062764E-01  8.8683062764E-01  8.8683062764E-01
            xcart      0.0000000000E+00  0.0000000000E+00  0.0000000000E+00
                       1.6758670125E+00  1.6758670125E+00  1.6758670125E+00
             xred      0.0000000000E+00  0.0000000000E+00  0.0000000000E+00
                       2.5000000000E-01  2.5000000000E-01  2.5000000000E-01
            znucl        6.00000

- Timing analysis has been suppressed with timopt=0

 Suggested references for the acknowledgment of ABINIT usage.

 Calculation completed.
.Delivered   0 WARNINGs and   2 COMMENTs to log file.